10	6	3.55
2 2 1 3 2 9 6 1 2 2 5 3 7 4 5 5 7 6 6
2 4 1 4 4 6 5 6 6 6 5 1 1 2 3 3 4 5 1 6 5
2 4 3 9 4 1 5 4 6 9 1 4 2
2 1 2 9 4 1 7 2 9 5 5 6 4
2 5 2 7 3 3 4 5 5 5 6 7 2 2 3 4 3
2 4 1 9 3 3 4 3 6 2 3 1 5 4 7 6 6
2 1 1 9 6 1 8 2 2 3 6 4 7 5 1 6 6
2 4 3 6 4 7 5 1 6 5 5 1 6 3 2 4 4 5 8 6 3
2 5 1 3 2 9 3 7 4 4 6 4 5 1 1 3 5 4 1 5 9 6 9
2 3 2 6 4 1 6 6 1 3 6
